c User generated cnf file
p cnf 11 21
4 11 -3 0 
-2 6 7 0 
8 8 -10 0 
6 -4 4 0 
8 -11 9 0 
-9 6 8 0 
6 -9 7 0 
-8 7 8 0 
-3 2 7 0 
2 -7 10 0 
7 -5 8 0 
8 9 -6 0 
-4 8 4 0 
4 -11 2 0 
8 -5 11 0 
-9 5 10 0 
-9 2 1 0 
4 5 -7 0 
4 10 -9 0 
1 7 -10 0 
6 11 -7 0 
